graph_generation/data/cp/rcsp/hexagonal_lattice_N_4_weights-one_windows-loose.dzn
N = 48;
M = 114;
Edge_Start = [1, 1, 2, 3, 3, 4, 5, 5, 6, 7, 8, 10, 11, 12, 13, 13, 14, 15, 16, 17, 18, 19, 20, 20, 21, 22, 22, 23, 24, 24, 25, 26, 26, 27, 28, 28, 30, 31, 31, 32, 33, 33, 34, 35, 35, 36, 37, 37, 38, 40, 41, 42, 43, 44, 45, 46, 47, 2, 10, 3, 4, 12, 5, 6, 14, 7, 8, 9, 11, 12, 13, 14, 23, 15, 16, 17, 27, 19, 29, 21, 30, 22, 23, 32, 24, 25, 34, 26, 27, 36, 28, 29, 38, 31, 32, 40, 33, 34, 42, 35, 36, 44, 37, 38, 46, 39, 41, 42, 43, 44, 45, 46, 47, 48];
Edge_End = [2, 10, 3, 4, 12, 5, 6, 14, 7, 8, 9, 11, 12, 13, 14, 23, 15, 16, 17, 27, 19, 29, 21, 30, 22, 23, 32, 24, 25, 34, 26, 27, 36, 28, 29, 38, 31, 32, 40, 33, 34, 42, 35, 36, 44, 37, 38, 46, 39, 41, 42, 43, 44, 45, 46, 47, 48, 1, 1, 2, 3, 3, 4, 5, 5, 6, 7, 8, 10, 11, 12, 13, 13, 14, 15, 16, 17, 18, 19, 20, 20, 21, 22, 22, 23, 24, 24, 25, 26, 26, 27, 28, 28, 30, 31, 31, 32, 33, 33, 34, 35, 35, 36, 37, 37, 38, 40, 41, 42, 43, 44, 45, 46, 47];
L = [1, 1, 1, 1, 1, 1, 1, 1, 1, 1, 1, 1, 1, 1, 1, 1, 1, 1, 1, 1, 1, 1, 1, 1, 1, 1, 1, 1, 1, 1, 1, 1, 1, 1, 1, 1, 1, 1, 1, 1, 1, 1, 1, 1, 1, 1, 1, 1, 1, 1, 1, 1, 1, 1, 1, 1, 1, 1, 1, 1, 1, 1, 1, 1, 1, 1, 1, 1, 1, 1, 1, 1, 1, 1, 1, 1, 1, 1, 1, 1, 1, 1, 1, 1, 1, 1, 1, 1, 1, 1, 1, 1, 1, 1, 1, 1, 1, 1, 1, 1, 1, 1, 1, 1, 1, 1, 1, 1, 1, 1, 1, 1, 1, 1];
T = [1, 1, 1, 1, 1, 1, 1, 1, 1, 1, 1, 1, 1, 1, 1, 1, 1, 1, 1, 1, 1, 1, 1, 1, 1, 1, 1, 1, 1, 1, 1, 1, 1, 1, 1, 1, 1, 1, 1, 1, 1, 1, 1, 1, 1, 1, 1, 1, 1, 1, 1, 1, 1, 1, 1, 1, 1, 1, 1, 1, 1, 1, 1, 1, 1, 1, 1, 1, 1, 1, 1, 1, 1, 1, 1, 1, 1, 1, 1, 1, 1, 1, 1, 1, 1, 1, 1, 1, 1, 1, 1, 1, 1, 1, 1, 1, 1, 1, 1, 1, 1, 1, 1, 1, 1, 1, 1, 1, 1, 1, 1, 1, 1, 1];
Lower_Bound = [0, 1, 2, 3, 5, 5, 6, 7, 8, 3, 2, 4, 4, 5, 7, 8, 8, 13, 12, 8, 7, 7, 7, 6, 8, 9, 10, 10, 11, 9, 8, 7, 8, 7, 9, 9, 10, 13, 13, 10, 11, 9, 10, 9, 10, 11, 12, 14];
Upper_Bound = [6, 3, 11, 6, 8, 9, 13, 8, 34, 10, 3, 5, 11, 9, 20, 10, 14, 25, 16, 14, 12, 11, 9, 10, 12, 12, 14, 16, 16, 21, 13, 10, 9, 16, 11, 11, 21, 18, 15, 11, 12, 10, 18, 18, 14, 15, 35, 17];
Start = 1;
End = 48;
Time = 17;
